sat
(
(define-fun sym209 () String "Y")
(define-fun sym1901 () String "P")
(define-fun sym3618 () String "P")
(define-fun sym3717 () String "A")
(define-fun sym817 () String "K")
(define-fun sym2119 () String "K")
(define-fun sym1688 () String "K")
(define-fun sym1039 () String "P")
(define-fun sym551 () String "P")
(define-fun sym3405 () String "K")
(define-fun sym2756 () String "P")
(define-fun sym1257 () String "K")
(define-fun sym2974 () String "K")
(define-fun sym2332 () String "P")
(define-fun sym3187 () String "P")
(define-fun sym2550 () String "K")
(define-fun sym161 () String "")
(define-fun sym1470 () String "P")
)
